\* BuyingBestsellers *\
Maximize
OBJ: x0 + x1 + x10 + x11 + x12 + x13 + x14 + x15 + x16 + x17 + x18 + x19 + x2
 + x20 + x21 + x22 + x23 + x24 + x25 + x26 + x27 + x28 + x29 + x3 + x30 + x31
 + x32 + x33 + x34 + x35 + x36 + x37 + x38 + x39 + x4 + x40 + x41 + x42 + x43
 + x44 + x45 + x46 + x47 + x48 + x49 + x5 + x50 + x51 + x52 + x53 + x54 + x55
 + x56 + x57 + x58 + x59 + x6 + x60 + x61 + x62 + x63 + x64 + x65 + x66 + x67
 + x68 + x69 + x7 + x70 + x71 + x72 + x73 + x74 + x75 + x76 + x77 + x78 + x79
 + x8 + x80 + x81 + x9
Subject To
_C1: 530 x0 + 313 x1 + 369 x10 + 470 x11 + 294 x12 + 309 x13 + 358 x14
 + 396 x15 + 392 x16 + 405 x17 + 1098 x18 + 398 x19 + 438 x2 + 447 x20
 + 336 x21 + 387 x22 + 405 x23 + 388 x24 + 404 x25 + 674 x26 + 487 x27
 + 624 x28 + 352 x29 + 323 x3 + 291 x30 + 511 x31 + 415 x32 + 400 x33
 + 397 x34 + 368 x35 + 320 x36 + 324 x37 + 320 x38 + 400 x39 + 422 x4
 + 409 x40 + 330 x41 + 320 x42 + 374 x43 + 450 x44 + 327 x45 + 352 x46
 + 475 x47 + 448 x48 + 376 x49 + 278 x5 + 179 x50 + 369 x51 + 317 x52
 + 431 x53 + 328 x54 + 458 x55 + 416 x56 + 288 x57 + 352 x58 + 452 x59
 + 771 x6 + 302 x60 + 481 x61 + 405 x62 + 464 x63 + 310 x64 + 400 x65
 + 276 x66 + 510 x67 + 376 x68 + 352 x69 + 368 x7 + 512 x70 + 318 x71
 + 304 x72 + 320 x73 + 416 x74 + 311 x75 + 566 x76 + 352 x77 + 384 x78
 + 880 x79 + 460 x8 + 421 x80 + 640 x81 + 384 x9 = 15600
Binaries
x0
x1
x10
x11
x12
x13
x14
x15
x16
x17
x18
x19
x2
x20
x21
x22
x23
x24
x25
x26
x27
x28
x29
x3
x30
x31
x32
x33
x34
x35
x36
x37
x38
x39
x4
x40
x41
x42
x43
x44
x45
x46
x47
x48
x49
x5
x50
x51
x52
x53
x54
x55
x56
x57
x58
x59
x6
x60
x61
x62
x63
x64
x65
x66
x67
x68
x69
x7
x70
x71
x72
x73
x74
x75
x76
x77
x78
x79
x8
x80
x81
x9
End
